networks/zoo_130_4160/zoo_130_4160.txt
OKAY
Number of groups: 74
Flow 13: {13 14 0} {14 79 1} 
Flow 32: {32 33 0} {33 98 1} 
Flow 45: {49 46 0} {46 111 1} 
Flow 70: {2 1 0} {1 7 1} {7 72 2} 
Flow 193: {4 8 0} {8 3 1} {3 1 2} {1 66 3} 
Flow 303: {5 8 0} {8 48 1} {48 113 2} 
Flow 312: {5 4 0} {4 57 1} {57 122 2} 
Flow 328: {6 8 0} {8 9 1} {9 74 2} 
Flow 386: {7 1 0} {1 2 1} {2 67 2} 
Flow 432: {3 8 0} {8 49 1} {49 114 2} 
Flow 443: {1 3 0} {3 56 1} {56 61 2} {61 60 3} {60 125 4} 
Flow 637: {10 9 0} {9 62 1} {62 127 2} 
Flow 712: {11 8 0} {8 73 1} 
Flow 753: {12 11 0} {11 50 1} {50 115 2} 
Flow 854: {14 13 0} {13 23 1} {23 88 2} 
Flow 926: {15 37 0} {37 31 1} {31 96 2} 
Flow 976: {16 23 0} {23 17 1} {17 82 2} 
Flow 1088: {17 23 0} {23 55 1} {55 65 2} {65 130 3} 
Flow 1106: {18 23 0} {23 19 1} {19 84 2} 
Flow 1194: {19 23 0} {23 37 1} {37 43 2} {43 108 3} 
Flow 1232: {20 23 0} {23 16 1} {16 81 2} 
Flow 1381: {21 23 0} {23 38 1} {38 103 2} 
Flow 1388: {22 21 0} {21 20 1} {20 45 2} 
Flow 1468: {23 8 0} {8 57 1} {57 61 2} {61 126 3} 
Flow 1492: {24 23 0} {23 20 1} {20 85 2} 
Flow 1599: {25 26 0} {26 23 1} {23 64 2} {64 129 3} 
Flow 1626: {26 9 0} {9 27 1} {27 92 2} 
Flow 1674: {27 9 0} {9 10 1} {10 75 2} 
Flow 1753: {28 9 0} {9 26 1} {26 25 2} {25 90 3} 
Flow 1798: {29 9 0} {9 8 1} {8 6 2} {6 71 3} 
Flow 1810: {29 23 0} {23 18 1} {18 83 2} 
Flow 1896: {30 37 0} {37 41 1} {41 106 2} 
Flow 1961: {31 37 0} {37 42 1} {42 107 2} 
Flow 2081: {33 32 0} {32 34 1} {34 99 2} 
Flow 2147: {34 32 0} {32 36 1} {36 101 2} 
Flow 2205: {9 29 0} 
Flow 2208: {35 32 0} {32 97 1} 
Flow 2268: {36 32 0} {32 28 1} {28 93 2} 
Flow 2397: {38 23 0} {23 29 1} {29 94 2} 
Flow 2462: {39 37 0} {37 30 1} {30 95 2} 
Flow 2511: {40 37 0} {37 15 1} {15 80 2} 
Flow 2603: {41 37 0} {37 44 1} {44 109 2} 
Flow 2661: {42 37 0} {37 102 1} 
Flow 2728: {43 37 0} {37 40 1} {40 105 2} 
Flow 2732: {37 23 0} {23 45 1} {45 110 2} 
Flow 2791: {44 37 0} {37 39 1} {39 104 2} 
Flow 2829: {45 23 0} {23 13 1} {13 78 2} 
Flow 2837: {45 20 0} {20 21 1} {21 86 2} 
Flow 2891: {46 49 0} {49 8 1} {8 11 2} {11 76 3} 
Flow 2948: {47 8 0} {8 4 1} {4 69 2} 
Flow 2991: {47 48 3} 
Flow 2995: {47 54 0} {54 53 1} {53 52 2} {52 117 3} 
Flow 3055: {48 47 0} 
Flow 3061: {48 8 0} {8 54 1} {54 119 2} 
Flow 3148: {50 11 0} {11 12 1} {12 77 2} 
Flow 3252: {51 53 0} {53 118 1} 
Flow 3311: {53 54 0} {54 47 1} 
Flow 3315: {52 53 0} {53 51 1} {51 116 2} 
Flow 3454: {54 8 0} {8 23 1} {23 63 2} 
Flow 3518: {55 63 0} {63 128 1} 
Flow 3523: {56 3 0} {3 68 1} 
Flow 3578: {60 59 0} {59 124 1} 
Flow 3704: {58 59 0} {59 60 1} {60 61 2} {61 56 3} {56 121 4} 
Flow 3802: {59 58 0} {58 55 1} {55 23 2} {23 26 3} {26 91 4} 
Flow 3845: {61 57 0} {57 4 1} {4 5 2} {5 70 3} 
Flow 3887: {57 8 0} {8 47 1} {47 112 2} 
Flow 3909: {8 5 0} 
Flow 3928: {62 23 0} {23 24 1} {24 89 2} 
Flow 3939: {62 9 0} {9 28 1} {28 32 2} {32 35 3} {35 100 4} 
Flow 3990: {63 23 0} {23 21 1} {21 22 2} {22 87 3} 
Flow 4023: {63 55 0} {55 120 1} 
Flow 4090: {64 55 0} {55 58 1} {58 123 2} 
Flow 4094: {64 23 0} {23 62 1} 
Flow 4160: {65 55 0} {55 64 1} 
Time taken running everything: 0 seconds
