networks/zoo_130_4160/zoo_130_4160.sol
<?xml version = "1.0" encoding="UTF-8" standalone="yes"?>
<CPLEXSolution version="1.2">
 <header
   problemName="networks/zoo_130_4160/zoo_130_4160.lp"
   solutionName="incumbent"
   solutionIndex="-1"
   objectiveValue="74"
   solutionTypeValue="3"
   solutionTypeString="primal"
   solutionStatusValue="107"
   solutionStatusString="time limit exceeded"
   solutionMethodString="mip"
   primalFeasible="1"
   dualFeasible="0"
   MIPNodes="2082"
   MIPIterations="529086"
   writeLevel="3"/>
 <quality
   epInt="1.0000000000000001e-05"
   epRHS="9.9999999999999995e-07"
   maxIntInfeas="6.9779843014927667e-13"
   maxPrimalInfeas="3.4889921507463832e-12"
   maxX="4"
   maxSlack="10"/>
 <variables>
  <variable name="Y(13,14)" index="1573" value="1"/>
  <variable name="Y(23,24)" index="2883" value="-3.1008529077780622e-13"/>
  <variable name="Y(32,33)" index="4062" value="1"/>
  <variable name="Y(45,46)" index="5765" value="1"/>
  <variable name="Y(70,7)" index="8976" value="1"/>
  <variable name="Y(193,1)" index="24960" value="1"/>
  <variable name="Y(303,48)" index="39307" value="1"/>
  <variable name="Y(312,57)" index="40486" value="1"/>
  <variable name="Y(328,9)" index="42518" value="1"/>
  <variable name="Y(386,2)" index="50051" value="1"/>
  <variable name="Y(407,24)" index="52803" value="3.1013005126941567e-13"/>
  <variable name="Y(432,49)" index="56078" value="1"/>
  <variable name="Y(437,54)" index="56733" value="-2.3259947671642556e-13"/>
  <variable name="Y(443,60)" index="57519" value="1"/>
  <variable name="Y(637,62)" index="82741" value="1"/>
  <variable name="Y(712,8)" index="92437" value="1"/>
  <variable name="Y(753,50)" index="97809" value="1"/>
  <variable name="Y(854,23)" index="110912" value="1"/>
  <variable name="Y(926,31)" index="120280" value="1"/>
  <variable name="Y(976,17)" index="126766" value="1"/>
  <variable name="Y(1088,65)" index="141374" value="1"/>
  <variable name="Y(1106,19)" index="143668" value="1"/>
  <variable name="Y(1194,43)" index="155132" value="1"/>
  <variable name="Y(1232,16)" index="160045" value="1"/>
  <variable name="Y(1381,38)" index="179437" value="1"/>
  <variable name="Y(1388,20)" index="180329" value="1"/>
  <variable name="Y(1468,61)" index="190770" value="1"/>
  <variable name="Y(1492,20)" index="193849" value="1"/>
  <variable name="Y(1599,64)" index="207803" value="1"/>
  <variable name="Y(1626,27)" index="211276" value="1"/>
  <variable name="Y(1674,10)" index="217499" value="1"/>
  <variable name="Y(1753,25)" index="227784" value="1"/>
  <variable name="Y(1798,6)" index="233615" value="1"/>
  <variable name="Y(1810,18)" index="235187" value="1"/>
  <variable name="Y(1896,41)" index="246390" value="1"/>
  <variable name="Y(1961,42)" index="254841" value="1"/>
  <variable name="Y(2081,34)" index="270433" value="1"/>
  <variable name="Y(2147,36)" index="279015" value="1"/>
  <variable name="Y(2205,9)" index="286528" value="1"/>
  <variable name="Y(2208,32)" index="286941" value="1"/>
  <variable name="Y(2268,28)" index="294737" value="1"/>
  <variable name="Y(2397,29)" index="311508" value="1"/>
  <variable name="Y(2462,30)" index="319959" value="1"/>
  <variable name="Y(2511,15)" index="326314" value="1"/>
  <variable name="Y(2603,44)" index="338303" value="1"/>
  <variable name="Y(2661,37)" index="345836" value="1"/>
  <variable name="Y(2728,40)" index="354549" value="1"/>
  <variable name="Y(2732,45)" index="355074" value="1"/>
  <variable name="Y(2791,39)" index="362738" value="1"/>
  <variable name="Y(2829,13)" index="367652" value="1"/>
  <variable name="Y(2837,21)" index="368700" value="1"/>
  <variable name="Y(2891,11)" index="375710" value="1"/>
  <variable name="Y(2948,4)" index="383113" value="1"/>
  <variable name="Y(2991,47)" index="388746" value="1"/>
  <variable name="Y(2995,52)" index="389271" value="1"/>
  <variable name="Y(3055,47)" index="397066" value="-2.3265498786765682e-13"/>
  <variable name="Y(3055,48)" index="397067" value="1.0000000000002327"/>
  <variable name="Y(3061,54)" index="397853" value="1"/>
  <variable name="Y(3148,12)" index="409121" value="1"/>
  <variable name="Y(3247,54)" index="422033" value="-2.3259947671642556e-13"/>
  <variable name="Y(3252,53)" index="422682" value="1"/>
  <variable name="Y(3253,54)" index="422813" value="2.3259947671642556e-13"/>
  <variable name="Y(3311,47)" index="430346" value="2.3259947671642556e-13"/>
  <variable name="Y(3311,54)" index="430353" value="1"/>
  <variable name="Y(3315,51)" index="430870" value="1"/>
  <variable name="Y(3454,23)" index="448912" value="1"/>
  <variable name="Y(3518,63)" index="457272" value="1"/>
  <variable name="Y(3523,3)" index="457862" value="1"/>
  <variable name="Y(3578,59)" index="465068" value="1"/>
  <variable name="Y(3704,56)" index="481445" value="1"/>
  <variable name="Y(3802,26)" index="494155" value="1"/>
  <variable name="Y(3845,5)" index="499724" value="1"/>
  <variable name="Y(3887,47)" index="505226" value="1"/>
  <variable name="Y(3909,8)" index="508047" value="1"/>
  <variable name="Y(3928,24)" index="510533" value="1"/>
  <variable name="Y(3939,35)" index="511974" value="1"/>
  <variable name="Y(3990,22)" index="518591" value="1"/>
  <variable name="Y(4023,55)" index="522914" value="1"/>
  <variable name="Y(4090,58)" index="531627" value="1"/>
  <variable name="Y(4094,23)" index="532112" value="1"/>
  <variable name="Y(4160,55)" index="540724" value="1"/>
  <variable name="X(1,2,386)" index="541185" value="1"/>
  <variable name="X(1,3,407)" index="545366" value="1.3083502506015291e-13"/>
  <variable name="X(1,3,437)" index="545396" value="-1.3083502506015294e-13"/>
  <variable name="X(1,3,443)" index="545402" value="1"/>
  <variable name="X(1,7,70)" index="549189" value="1"/>
  <variable name="X(1,66,193)" index="553472" value="1"/>
  <variable name="X(2,1,70)" index="557509" value="1"/>
  <variable name="X(2,67,386)" index="561985" value="1"/>
  <variable name="X(3,1,193)" index="565952" value="1"/>
  <variable name="X(3,8,407)" index="570326" value="1.7444524640615902e-13"/>
  <variable name="X(3,8,432)" index="570351" value="1"/>
  <variable name="X(3,8,437)" index="570356" value="-1.7444524640615905e-13"/>
  <variable name="X(3,56,443)" index="574522" value="1"/>
  <variable name="X(3,68,3523)" index="581762" value="1"/>
  <variable name="X(4,5,3845)" index="586244" value="1"/>
  <variable name="X(4,8,193)" index="586752" value="1"/>
  <variable name="X(4,57,312)" index="591031" value="1"/>
  <variable name="X(4,69,2948)" index="597827" value="1"/>
  <variable name="X(5,4,312)" index="599351" value="1"/>
  <variable name="X(5,8,303)" index="603502" value="1"/>
  <variable name="X(5,70,3845)" index="611204" value="1"/>
  <variable name="X(6,8,328)" index="611847" value="1"/>
  <variable name="X(6,71,1798)" index="617477" value="1"/>
  <variable name="X(7,1,386)" index="620225" value="1"/>
  <variable name="X(7,1,407)" index="620246" value="3.9251815868296474e-13"/>
  <variable name="X(7,1,437)" index="620276" value="-3.9251815868296479e-13"/>
  <variable name="X(7,72,70)" index="624069" value="1"/>
  <variable name="X(8,3,193)" index="628352" value="1"/>
  <variable name="X(8,4,2948)" index="635267" value="1"/>
  <variable name="X(8,5,3909)" index="640388" value="1"/>
  <variable name="X(8,6,1798)" index="642437" value="1"/>
  <variable name="X(8,9,328)" index="645127" value="1"/>
  <variable name="X(8,11,2891)" index="651850" value="1"/>
  <variable name="X(8,23,407)" index="653526" value="2.325917236589703e-13"/>
  <variable name="X(8,23,3087)" index="656206" value="-2.325917236589703e-13"/>
  <variable name="X(8,23,3454)" index="656573" value="1"/>
  <variable name="X(8,47,3887)" index="661166" value="1"/>
  <variable name="X(8,48,303)" index="661742" value="1"/>
  <variable name="X(8,49,432)" index="666031" value="1"/>
  <variable name="X(8,54,437)" index="670196" value="-2.3259947671642556e-13"/>
  <variable name="X(8,54,3061)" index="672820" value="1"/>
  <variable name="X(8,54,4022)" index="673781" value="2.3259947671642556e-13"/>
  <variable name="X(8,57,1468)" index="675387" value="1"/>
  <variable name="X(8,73,712)" index="678791" value="1"/>
  <variable name="X(9,8,1798)" index="684037" value="1"/>
  <variable name="X(9,10,1674)" index="688073" value="1"/>
  <variable name="X(9,26,1753)" index="692312" value="1"/>
  <variable name="X(9,27,1626)" index="696345" value="1"/>
  <variable name="X(9,28,3939)" index="702818" value="1"/>
  <variable name="X(9,29,2205)" index="705244" value="1"/>
  <variable name="X(9,62,637)" index="707836" value="1"/>
  <variable name="X(9,74,328)" index="711687" value="1"/>
  <variable name="X(10,9,637)" index="716156" value="1"/>
  <variable name="X(10,75,1674)" index="721353" value="1"/>
  <variable name="X(11,8,712)" index="724551" value="1"/>
  <variable name="X(11,12,3148)" index="731147" value="1"/>
  <variable name="X(11,50,753)" index="732912" value="1"/>
  <variable name="X(11,76,2891)" index="739210" value="1"/>
  <variable name="X(12,11,753)" index="741232" value="1"/>
  <variable name="X(12,77,3148)" index="747787" value="1"/>
  <variable name="X(13,14,13)" index="748812" value="1"/>
  <variable name="X(13,23,854)" index="753813" value="1"/>
  <variable name="X(13,78,2829)" index="759948" value="1"/>
  <variable name="X(14,13,854)" index="762133" value="1"/>
  <variable name="X(14,79,13)" index="765452" value="1"/>
  <variable name="X(15,37,926)" index="770525" value="1"/>
  <variable name="X(15,80,2511)" index="776270" value="1"/>
  <variable name="X(16,23,976)" index="778895" value="1"/>
  <variable name="X(16,81,1232)" index="783311" value="1"/>
  <variable name="X(17,23,1088)" index="787327" value="1"/>
  <variable name="X(17,82,976)" index="791375" value="1"/>
  <variable name="X(18,23,1106)" index="795665" value="1"/>
  <variable name="X(18,83,1810)" index="800529" value="1"/>
  <variable name="X(19,23,1194)" index="804073" value="1"/>
  <variable name="X(19,84,1106)" index="808145" value="1"/>
  <variable name="X(20,21,2837)" index="814036" value="1"/>
  <variable name="X(20,23,1232)" index="816591" value="1"/>
  <variable name="X(20,45,1388)" index="820907" value="1"/>
  <variable name="X(20,85,1492)" index="825171" value="1"/>
  <variable name="X(21,20,1388)" index="829227" value="1"/>
  <variable name="X(21,22,3990)" index="835989" value="1"/>
  <variable name="X(21,23,1381)" index="837540" value="1"/>
  <variable name="X(21,86,2837)" index="843156" value="1"/>
  <variable name="X(22,21,1388)" index="845867" value="1"/>
  <variable name="X(22,87,3990)" index="852629" value="1"/>
  <variable name="X(23,8,1468)" index="854267" value="1"/>
  <variable name="X(23,13,2829)" index="859788" value="1"/>
  <variable name="X(23,16,1232)" index="862351" value="1"/>
  <variable name="X(23,17,976)" index="866255" value="1"/>
  <variable name="X(23,18,1810)" index="871249" value="1"/>
  <variable name="X(23,19,1106)" index="874705" value="1"/>
  <variable name="X(23,20,1492)" index="879251" value="1"/>
  <variable name="X(23,21,3990)" index="885909" value="1"/>
  <variable name="X(23,24,23)" index="886102" value="-3.1013005126941567e-13"/>
  <variable name="X(23,24,407)" index="886486" value="3.1013005126941567e-13"/>
  <variable name="X(23,24,3928)" index="890007" value="1"/>
  <variable name="X(23,26,3802)" index="894041" value="1"/>
  <variable name="X(23,29,2397)" index="896796" value="1"/>
  <variable name="X(23,37,1194)" index="899753" value="1"/>
  <variable name="X(23,38,1381)" index="904100" value="1"/>
  <variable name="X(23,45,2732)" index="909611" value="1"/>
  <variable name="X(23,55,1088)" index="912127" value="1"/>
  <variable name="X(23,62,4094)" index="919293" value="1"/>
  <variable name="X(23,63,3454)" index="922813" value="1"/>
  <variable name="X(23,64,1599)" index="925118" value="1"/>
  <variable name="X(23,88,854)" index="928533" value="1"/>
  <variable name="X(24,23,1492)" index="933331" value="1"/>
  <variable name="X(24,89,23)" index="936022" value="-3.1008529077780622e-13"/>
  <variable name="X(24,89,407)" index="936406" value="3.1013005126941567e-13"/>
  <variable name="X(24,89,3928)" index="939927" value="1"/>
  <variable name="X(25,26,1599)" index="941758" value="1"/>
  <variable name="X(25,90,1753)" index="946072" value="1"/>
  <variable name="X(26,9,1626)" index="950105" value="1"/>
  <variable name="X(26,23,1599)" index="954238" value="1"/>
  <variable name="X(26,25,1753)" index="958552" value="1"/>
  <variable name="X(26,91,3802)" index="964761" value="1"/>
  <variable name="X(27,9,1674)" index="966793" value="1"/>
  <variable name="X(27,92,1626)" index="970905" value="1"/>
  <variable name="X(28,9,1753)" index="975192" value="1"/>
  <variable name="X(28,32,3939)" index="981538" value="1"/>
  <variable name="X(28,93,2268)" index="984027" value="1"/>
  <variable name="X(29,9,1798)" index="987717" value="1"/>
  <variable name="X(29,23,1810)" index="991889" value="1"/>
  <variable name="X(29,94,2397)" index="996636" value="1"/>
  <variable name="X(30,37,1896)" index="1000295" value="1"/>
  <variable name="X(30,95,2462)" index="1005021" value="1"/>
  <variable name="X(31,37,1961)" index="1008680" value="1"/>
  <variable name="X(31,96,926)" index="1011805" value="1"/>
  <variable name="X(32,28,2268)" index="1017307" value="1"/>
  <variable name="X(32,33,32)" index="1019231" value="1"/>
  <variable name="X(32,34,2081)" index="1025440" value="1"/>
  <variable name="X(32,35,3939)" index="1031458" value="1"/>
  <variable name="X(32,36,2147)" index="1033826" value="1"/>
  <variable name="X(32,97,2208)" index="1038047" value="1"/>
  <variable name="X(33,32,2081)" index="1042080" value="1"/>
  <variable name="X(33,98,32)" index="1044191" value="1"/>
  <variable name="X(34,32,2147)" index="1050466" value="1"/>
  <variable name="X(34,99,2081)" index="1054560" value="1"/>
  <variable name="X(35,32,2208)" index="1058847" value="1"/>
  <variable name="X(35,100,3939)" index="1064738" value="1"/>
  <variable name="X(36,32,2268)" index="1067227" value="1"/>
  <variable name="X(36,101,2147)" index="1071266" value="1"/>
  <variable name="X(37,15,2511)" index="1075790" value="1"/>
  <variable name="X(37,23,2732)" index="1080171" value="1"/>
  <variable name="X(37,30,2462)" index="1084061" value="1"/>
  <variable name="X(37,31,926)" index="1086685" value="1"/>
  <variable name="X(37,39,2791)" index="1092710" value="1"/>
  <variable name="X(37,40,2728)" index="1096807" value="1"/>
  <variable name="X(37,41,1896)" index="1100135" value="1"/>
  <variable name="X(37,42,1961)" index="1104360" value="1"/>
  <variable name="X(37,43,1194)" index="1107753" value="1"/>
  <variable name="X(37,44,2603)" index="1113322" value="1"/>
  <variable name="X(37,102,2661)" index="1117540" value="1"/>
  <variable name="X(38,23,2397)" index="1121436" value="1"/>
  <variable name="X(38,103,1381)" index="1124580" value="1"/>
  <variable name="X(39,37,2462)" index="1129821" value="1"/>
  <variable name="X(39,104,2791)" index="1134310" value="1"/>
  <variable name="X(40,37,2511)" index="1138190" value="1"/>
  <variable name="X(40,105,2728)" index="1142567" value="1"/>
  <variable name="X(41,37,2603)" index="1146602" value="1"/>
  <variable name="X(41,106,1896)" index="1150055" value="1"/>
  <variable name="X(42,37,2661)" index="1154980" value="1"/>
  <variable name="X(42,107,1961)" index="1158440" value="1"/>
  <variable name="X(43,37,2728)" index="1163367" value="1"/>
  <variable name="X(43,108,1194)" index="1165993" value="1"/>
  <variable name="X(44,37,2791)" index="1171750" value="1"/>
  <variable name="X(44,109,2603)" index="1175722" value="1"/>
  <variable name="X(45,20,2837)" index="1180116" value="1"/>
  <variable name="X(45,23,2829)" index="1184268" value="1"/>
  <variable name="X(45,110,2732)" index="1188331" value="1"/>
  <variable name="X(46,49,2891)" index="1192650" value="1"/>
  <variable name="X(46,111,45)" index="1193964" value="1"/>
  <variable name="X(47,8,2948)" index="1201027" value="1"/>
  <variable name="X(47,48,2991)" index="1205230" value="1"/>
  <variable name="X(47,54,2995)" index="1209394" value="1"/>
  <variable name="X(47,112,3055)" index="1213614" value="-2.3265498786765682e-13"/>
  <variable name="X(47,112,3311)" index="1213870" value="2.3259947671642556e-13"/>
  <variable name="X(47,112,3887)" index="1214446" value="1"/>
  <variable name="X(48,8,3061)" index="1217780" value="1"/>
  <variable name="X(48,47,3055)" index="1221934" value="1"/>
  <variable name="X(48,113,303)" index="1223342" value="1"/>
  <variable name="X(49,8,2891)" index="1230090" value="1"/>
  <variable name="X(49,46,45)" index="1231404" value="1"/>
  <variable name="X(49,114,432)" index="1235951" value="1"/>
  <variable name="X(50,11,3148)" index="1242827" value="1"/>
  <variable name="X(50,115,753)" index="1244592" value="1"/>
  <variable name="X(51,53,3247)" index="1251246" value="-6.9779843014927667e-13"/>
  <variable name="X(51,53,3252)" index="1251251" value="1"/>
  <variable name="X(51,53,3253)" index="1251252" value="6.9779843014927667e-13"/>
  <variable name="X(51,116,3315)" index="1255474" value="1"/>
  <variable name="X(52,53,3315)" index="1259634" value="1"/>
  <variable name="X(52,117,2995)" index="1263474" value="1"/>
  <variable name="X(53,51,3315)" index="1267954" value="1"/>
  <variable name="X(53,52,2995)" index="1271794" value="1"/>
  <variable name="X(53,54,3247)" index="1276206" value="-2.3259947671642556e-13"/>
  <variable name="X(53,54,3253)" index="1276212" value="2.3259947671642556e-13"/>
  <variable name="X(53,54,3311)" index="1276270" value="1"/>
  <variable name="X(53,118,3252)" index="1280371" value="1"/>
  <variable name="X(54,8,3454)" index="1284733" value="1"/>
  <variable name="X(54,47,3247)" index="1288686" value="-2.3259947671642556e-13"/>
  <variable name="X(54,47,3311)" index="1288750" value="1.0000000000002327"/>
  <variable name="X(54,53,2995)" index="1292594" value="1"/>
  <variable name="X(54,119,437)" index="1294196" value="-2.3259947671642556e-13"/>
  <variable name="X(54,119,3061)" index="1296820" value="1"/>
  <variable name="X(54,119,3253)" index="1297012" value="2.3259947671642556e-13"/>
  <variable name="X(55,23,3802)" index="1301721" value="1"/>
  <variable name="X(55,58,4090)" index="1306169" value="1"/>
  <variable name="X(55,63,3518)" index="1309757" value="1"/>
  <variable name="X(55,64,4160)" index="1314559" value="1"/>
  <variable name="X(55,65,1088)" index="1315647" value="1"/>
  <variable name="X(55,120,4023)" index="1322742" value="1"/>
  <variable name="X(56,3,3523)" index="1326402" value="1"/>
  <variable name="X(56,61,443)" index="1327482" value="1"/>
  <variable name="X(56,121,3704)" index="1334903" value="1"/>
  <variable name="X(57,4,3845)" index="1339204" value="1"/>
  <variable name="X(57,8,3887)" index="1343406" value="1"/>
  <variable name="X(57,61,1468)" index="1345147" value="1"/>
  <variable name="X(57,122,312)" index="1348151" value="1"/>
  <variable name="X(58,55,3802)" index="1355801" value="1"/>
  <variable name="X(58,59,3704)" index="1359863" value="1"/>
  <variable name="X(58,123,4090)" index="1364409" value="1"/>
  <variable name="X(59,58,3802)" index="1368281" value="1"/>
  <variable name="X(59,60,3704)" index="1372343" value="1"/>
  <variable name="X(59,124,3578)" index="1376377" value="1"/>
  <variable name="X(60,59,3578)" index="1380537" value="1"/>
  <variable name="X(60,61,3704)" index="1384823" value="1"/>
  <variable name="X(60,125,443)" index="1385722" value="1"/>
  <variable name="X(61,56,3704)" index="1393143" value="1"/>
  <variable name="X(61,57,3845)" index="1397444" value="1"/>
  <variable name="X(61,60,443)" index="1398202" value="1"/>
  <variable name="X(61,126,1468)" index="1403387" value="1"/>
  <variable name="X(62,9,3939)" index="1410018" value="1"/>
  <variable name="X(62,23,3928)" index="1414167" value="1"/>
  <variable name="X(62,127,637)" index="1415036" value="1"/>
  <variable name="X(63,23,3990)" index="1422549" value="1"/>
  <variable name="X(63,55,4023)" index="1426742" value="1"/>
  <variable name="X(63,128,3518)" index="1430397" value="1"/>
  <variable name="X(64,23,4094)" index="1435133" value="1"/>
  <variable name="X(64,55,4090)" index="1439289" value="1"/>
  <variable name="X(64,129,1599)" index="1440958" value="1"/>
  <variable name="X(65,55,4160)" index="1447679" value="1"/>
  <variable name="X(65,130,1088)" index="1448767" value="1"/>
  <variable name="C(13,14)" index="1451889" value="1"/>
  <variable name="C(23,24)" index="1451940" value="-3.1013005126941567e-13"/>
  <variable name="C(32,33)" index="1451991" value="1"/>
  <variable name="C(45,46)" index="1452068" value="1"/>
  <variable name="C(70,1)" index="1452182" value="1"/>
  <variable name="C(70,7)" index="1452183" value="2"/>
  <variable name="C(193,8)" index="1452808" value="1"/>
  <variable name="C(193,3)" index="1452809" value="2"/>
  <variable name="C(193,1)" index="1452810" value="3"/>
  <variable name="C(303,8)" index="1453273" value="1"/>
  <variable name="C(303,48)" index="1453274" value="2"/>
  <variable name="C(312,4)" index="1453308" value="1"/>
  <variable name="C(312,57)" index="1453309" value="2"/>
  <variable name="C(328,8)" index="1453373" value="1"/>
  <variable name="C(328,9)" index="1453374" value="2"/>
  <variable name="C(386,1)" index="1453623" value="1"/>
  <variable name="C(386,2)" index="1453624" value="2"/>
  <variable name="C(407,1)" index="1453738" value="3.9251815868296474e-13"/>
  <variable name="C(407,3)" index="1453739" value="5.2335318374311763e-13"/>
  <variable name="C(407,8)" index="1453740" value="6.9779843014927667e-13"/>
  <variable name="C(407,23)" index="1453741" value="9.3039015380824697e-13"/>
  <variable name="C(407,24)" index="1453742" value="1.2405202050776627e-12"/>
  <variable name="C(432,8)" index="1453906" value="1"/>
  <variable name="C(432,49)" index="1453907" value="2"/>
  <variable name="C(437,1)" index="1453935" value="-3.9251815868296479e-13"/>
  <variable name="C(437,3)" index="1453936" value="-5.2335318374311773e-13"/>
  <variable name="C(437,8)" index="1453937" value="-6.9779843014927678e-13"/>
  <variable name="C(437,54)" index="1453938" value="-9.3039790686570223e-13"/>
  <variable name="C(443,3)" index="1453970" value="1"/>
  <variable name="C(443,56)" index="1453971" value="2"/>
  <variable name="C(443,61)" index="1453972" value="3"/>
  <variable name="C(443,60)" index="1453973" value="4"/>
  <variable name="C(637,9)" index="1454757" value="1"/>
  <variable name="C(637,62)" index="1454758" value="2"/>
  <variable name="C(712,8)" index="1455079" value="1"/>
  <variable name="C(753,11)" index="1455294" value="1"/>
  <variable name="C(753,50)" index="1455295" value="2"/>
  <variable name="C(854,13)" index="1455749" value="1"/>
  <variable name="C(854,23)" index="1455750" value="2"/>
  <variable name="C(926,37)" index="1456119" value="1"/>
  <variable name="C(926,31)" index="1456120" value="2"/>
  <variable name="C(976,23)" index="1456362" value="1"/>
  <variable name="C(976,17)" index="1456363" value="2"/>
  <variable name="C(1088,23)" index="1456837" value="1"/>
  <variable name="C(1088,55)" index="1456838" value="2"/>
  <variable name="C(1088,65)" index="1456839" value="3"/>
  <variable name="C(1106,23)" index="1456912" value="1"/>
  <variable name="C(1106,19)" index="1456913" value="2"/>
  <variable name="C(1194,23)" index="1457286" value="1"/>
  <variable name="C(1194,37)" index="1457287" value="2"/>
  <variable name="C(1194,43)" index="1457288" value="3"/>
  <variable name="C(1232,23)" index="1457450" value="1"/>
  <variable name="C(1232,16)" index="1457451" value="2"/>
  <variable name="C(1381,23)" index="1458110" value="1"/>
  <variable name="C(1381,38)" index="1458111" value="2"/>
  <variable name="C(1388,21)" index="1458143" value="1"/>
  <variable name="C(1388,20)" index="1458144" value="2"/>
  <variable name="C(1468,8)" index="1458451" value="1"/>
  <variable name="C(1468,57)" index="1458452" value="2"/>
  <variable name="C(1468,61)" index="1458453" value="3"/>
  <variable name="C(1492,23)" index="1458541" value="1"/>
  <variable name="C(1492,20)" index="1458542" value="2"/>
  <variable name="C(1599,26)" index="1459042" value="1"/>
  <variable name="C(1599,23)" index="1459043" value="2"/>
  <variable name="C(1599,64)" index="1459044" value="3"/>
  <variable name="C(1626,9)" index="1459141" value="1"/>
  <variable name="C(1626,27)" index="1459142" value="2"/>
  <variable name="C(1674,9)" index="1459341" value="1"/>
  <variable name="C(1674,10)" index="1459342" value="2"/>
  <variable name="C(1753,9)" index="1459727" value="1"/>
  <variable name="C(1753,26)" index="1459728" value="2"/>
  <variable name="C(1753,25)" index="1459729" value="3"/>
  <variable name="C(1798,9)" index="1459940" value="1"/>
  <variable name="C(1798,8)" index="1459941" value="2"/>
  <variable name="C(1798,6)" index="1459942" value="3"/>
  <variable name="C(1810,23)" index="1459984" value="1"/>
  <variable name="C(1810,18)" index="1459985" value="2"/>
  <variable name="C(1896,37)" index="1460364" value="1"/>
  <variable name="C(1896,41)" index="1460365" value="2"/>
  <variable name="C(1961,37)" index="1460684" value="1"/>
  <variable name="C(1961,42)" index="1460685" value="2"/>
  <variable name="C(2081,32)" index="1461364" value="1"/>
  <variable name="C(2081,34)" index="1461365" value="2"/>
  <variable name="C(2147,32)" index="1461790" value="1"/>
  <variable name="C(2147,36)" index="1461791" value="2"/>
  <variable name="C(2208,32)" index="1462202" value="1"/>
  <variable name="C(2268,32)" index="1462598" value="1"/>
  <variable name="C(2268,28)" index="1462599" value="2"/>
  <variable name="C(2397,23)" index="1463205" value="1"/>
  <variable name="C(2397,29)" index="1463206" value="2"/>
  <variable name="C(2462,37)" index="1463507" value="1"/>
  <variable name="C(2462,30)" index="1463508" value="2"/>
  <variable name="C(2511,37)" index="1463760" value="1"/>
  <variable name="C(2511,15)" index="1463761" value="2"/>
  <variable name="C(2603,37)" index="1464204" value="1"/>
  <variable name="C(2603,44)" index="1464205" value="2"/>
  <variable name="C(2661,37)" index="1464503" value="1"/>
  <variable name="C(2728,37)" index="1464829" value="1"/>
  <variable name="C(2728,40)" index="1464830" value="2"/>
  <variable name="C(2732,23)" index="1464842" value="1"/>
  <variable name="C(2732,45)" index="1464843" value="2"/>
  <variable name="C(2791,37)" index="1465143" value="1"/>
  <variable name="C(2791,39)" index="1465144" value="2"/>
  <variable name="C(2829,23)" index="1465324" value="1"/>
  <variable name="C(2829,13)" index="1465325" value="2"/>
  <variable name="C(2837,20)" index="1465349" value="1"/>
  <variable name="C(2837,21)" index="1465350" value="2"/>
  <variable name="C(2891,49)" index="1465586" value="1"/>
  <variable name="C(2891,8)" index="1465587" value="2"/>
  <variable name="C(2891,11)" index="1465588" value="3"/>
  <variable name="C(2948,8)" index="1465887" value="1"/>
  <variable name="C(2948,4)" index="1465888" value="2"/>
  <variable name="C(2991,47)" index="1466072" value="3"/>
  <variable name="C(2995,54)" index="1466086" value="1"/>
  <variable name="C(2995,53)" index="1466087" value="2"/>
  <variable name="C(2995,52)" index="1466088" value="3"/>
  <variable name="C(3055,47)" index="1466341" value="-2.3265498786765682e-13"/>
  <variable name="C(3061,8)" index="1466364" value="1"/>
  <variable name="C(3061,54)" index="1466365" value="2"/>
  <variable name="C(3087,23)" index="1466467" value="-2.325917236589703e-13"/>
  <variable name="C(3148,11)" index="1466733" value="1"/>
  <variable name="C(3148,12)" index="1466734" value="2"/>
  <variable name="C(3247,53)" index="1467308" value="-6.9779843014927667e-13"/>
  <variable name="C(3247,54)" index="1467309" value="-9.3039790686570223e-13"/>
  <variable name="C(3252,53)" index="1467331" value="1"/>
  <variable name="C(3253,53)" index="1467333" value="6.9779843014927667e-13"/>
  <variable name="C(3253,54)" index="1467334" value="9.3039790686570223e-13"/>
  <variable name="C(3311,54)" index="1467697" value="1"/>
  <variable name="C(3311,47)" index="1467698" value="2.3259947671642556e-13"/>
  <variable name="C(3315,53)" index="1467716" value="1"/>
  <variable name="C(3315,51)" index="1467717" value="2"/>
  <variable name="C(3454,8)" index="1468372" value="1"/>
  <variable name="C(3454,23)" index="1468373" value="2"/>
  <variable name="C(3518,63)" index="1468641" value="1"/>
  <variable name="C(3523,3)" index="1468654" value="1"/>
  <variable name="C(3578,59)" index="1468936" value="1"/>
  <variable name="C(3704,59)" index="1469515" value="1"/>
  <variable name="C(3704,60)" index="1469516" value="2"/>
  <variable name="C(3704,61)" index="1469517" value="3"/>
  <variable name="C(3704,56)" index="1469518" value="4"/>
  <variable name="C(3802,58)" index="1470058" value="1"/>
  <variable name="C(3802,55)" index="1470059" value="2"/>
  <variable name="C(3802,23)" index="1470060" value="3"/>
  <variable name="C(3802,26)" index="1470061" value="4"/>
  <variable name="C(3845,57)" index="1470299" value="1"/>
  <variable name="C(3845,4)" index="1470300" value="2"/>
  <variable name="C(3845,5)" index="1470301" value="3"/>
  <variable name="C(3887,8)" index="1470524" value="1"/>
  <variable name="C(3887,47)" index="1470525" value="2"/>
  <variable name="C(3928,23)" index="1470685" value="1"/>
  <variable name="C(3928,24)" index="1470686" value="2"/>
  <variable name="C(3939,9)" index="1470726" value="1"/>
  <variable name="C(3939,28)" index="1470727" value="2"/>
  <variable name="C(3939,32)" index="1470728" value="3"/>
  <variable name="C(3939,35)" index="1470729" value="4"/>
  <variable name="C(3990,23)" index="1470937" value="1"/>
  <variable name="C(3990,21)" index="1470938" value="2"/>
  <variable name="C(3990,22)" index="1470939" value="3"/>
  <variable name="C(4022,54)" index="1471082" value="2.3259947671642556e-13"/>
  <variable name="C(4023,55)" index="1471084" value="1"/>
  <variable name="C(4090,55)" index="1471362" value="1"/>
  <variable name="C(4090,58)" index="1471363" value="2"/>
  <variable name="C(4094,23)" index="1471379" value="1"/>
  <variable name="C(4160,55)" index="1471710" value="1"/>
 </variables>
</CPLEXSolution>
